70
2 1 165
3 0 203
3 1 27
3 2 42
4 0 43
4 1 262
4 2 235
4 3 188
5 0 295
5 2 251
5 3 225
6 0 30
6 1 112
6 2 114
6 3 195
6 4 163
6 5 73
7 1 100
7 2 74
7 3 221
7 4 231
7 5 290
7 6 120
8 0 137
8 1 111
8 2 89
8 4 261
8 6 197
8 7 55
9 0 99
9 1 263
9 2 47
9 4 130
9 5 291
9 6 295
9 7 131
9 8 35
10 0 247
10 2 130
10 3 88
10 4 80
10 5 42
10 6 292
10 7 54
10 8 42
10 9 125
11 0 36
11 1 214
11 2 174
11 3 170
11 4 128
11 5 202
11 6 303
11 7 7
11 9 14
11 10 30
12 0 284
12 1 251
12 2 200
12 3 182
12 4 194
12 5 226
12 6 68
12 7 75
12 8 170
12 9 240
12 10 249
12 11 118
13 0 301
13 1 146
13 2 14
13 3 265
13 4 37
13 5 145
13 6 50
13 7 72
13 8 121
13 9 291
13 10 193
13 11 84
13 12 271
14 0 76
14 1 53
14 2 75
14 3 91
14 4 236
14 5 255
14 8 187
14 9 317
14 10 210
14 11 269
14 12 231
15 0 56
15 1 90
15 2 52
15 3 122
15 4 168
15 5 156
15 6 58
15 7 91
15 8 234
15 9 47
15 10 186
15 11 244
15 12 12
15 13 47
15 14 234
16 0 103
16 2 305
16 3 130
16 4 156
16 5 211
16 6 230
16 7 314
16 8 155
16 9 96
16 10 251
16 11 218
16 12 156
16 13 73
16 14 200
16 15 89
17 0 288
17 1 92
17 2 85
17 3 90
17 4 156
17 5 131
17 6 92
17 7 40
17 8 280
17 9 121
17 11 133
17 12 105
17 13 160
17 14 68
17 15 51
17 16 209
18 0 83
18 1 189
18 2 257
18 3 55
18 4 243
18 5 62
18 6 191
18 7 106
18 8 210
18 9 312
18 11 298
18 12 179
18 13 251
18 15 244
18 16 109
18 17 51
19 1 125
19 2 22
19 3 205
19 4 52
19 5 307
19 6 315
19 7 37
19 8 29
19 9 4
19 10 258
19 11 205
19 12 234
19 13 180
19 14 45
19 15 257
19 16 271
19 17 34
19 18 102
20 0 76
20 2 127
20 3 73
20 4 137
20 5 157
20 7 254
20 8 274
20 9 107
20 10 126
20 11 21
20 12 91
20 14 293
20 15 185
20 16 201
20 17 275
20 18 168
20 19 212
21 0 6
21 1 202
21 3 243
21 4 179
21 5 307
21 6 193
21 8 145
21 10 192
21 11 184
21 12 169
21 13 218
21 14 83
21 15 102
21 16 105
21 17 196
21 18 51
21 19 2
21 20 44
22 0 232
22 1 194
22 2 11
22 3 283
22 4 79
22 5 46
22 6 203
22 7 251
22 9 309
22 10 108
22 11 141
22 12 260
22 13 38
22 14 60
22 16 96
22 17 223
22 18 191
22 19 197
22 20 237
22 21 217
23 0 194
23 2 242
23 3 242
23 4 289
23 5 9
23 6 180
23 7 11
23 8 203
23 9 109
23 10 45
23 11 305
23 12 230
23 13 45
23 14 95
23 15 258
23 16 263
23 17 32
23 18 60
23 20 12
23 21 29
23 22 279
24 0 181
24 2 152
24 3 178
24 4 106
24 5 222
24 6 246
24 7 136
24 8 59
24 9 147
24 10 285
24 12 42
24 13 198
24 14 195
24 15 302
24 16 53
24 17 14
24 18 113
24 19 182
24 20 194
24 21 154
24 22 32
25 0 258
25 1 161
25 2 87
25 3 37
25 4 42
25 5 41
25 6 112
25 7 193
25 8 221
25 9 265
25 10 140
25 12 47
25 13 31
25 14 183
25 15 85
25 16 210
25 17 77
25 18 224
25 19 218
25 20 71
25 22 65
25 23 12
25 24 41
26 1 266
26 2 163
26 3 209
26 4 156
26 5 258
26 6 66
26 7 198
26 8 134
26 9 310
26 10 52
26 11 101
26 12 80
26 13 222
26 14 125
26 15 233
26 16 186
26 17 274
26 18 21
26 19 154
26 20 317
26 21 62
26 22 2
26 23 22
26 24 19
26 25 236
27 0 42
27 1 59
27 2 9
27 3 48
27 4 3
27 5 194
27 6 278
27 7 19
27 8 303
27 9 92
27 10 250
27 11 219
27 12 71
27 13 214
27 14 127
27 15 117
27 16 118
27 17 130
27 18 54
27 19 268
27 20 209
27 23 255
27 24 97
27 25 48
27 26 206
28 0 192
28 1 205
28 2 11
28 3 168
28 4 71
28 5 115
28 6 9
28 7 194
28 8 26
28 9 30
28 10 31
28 11 181
28 12 138
28 13 238
28 15 128
28 16 115
28 18 189
28 19 33
28 20 290
28 21 85
28 22 306
28 23 5
28 24 281
28 25 233
28 26 82
28 27 29
29 0 92
29 1 151
29 2 166
29 3 93
29 4 108
29 5 167
29 6 226
29 7 121
29 8 204
29 9 129
29 10 130
29 11 194
29 12 309
29 13 207
29 14 241
29 15 252
29 16 275
29 17 25
29 18 202
29 19 76
29 20 246
29 22 8
29 23 158
29 24 46
29 25 58
29 26 9
29 27 286
29 28 249
30 0 42
30 1 74
30 2 275
30 3 166
30 4 273
30 6 39
30 7 81
30 8 269
30 9 287
30 10 280
30 11 94
30 13 27
30 14 29
30 15 82
30 17 235
30 18 74
30 19 89
30 20 72
30 21 49
30 22 230
30 23 153
30 25 228
30 26 244
30 28 68
30 29 305
31 0 125
31 2 83
31 3 102
31 4 192
31 5 178
31 6 274
31 7 250
31 8 286
31 9 314
31 10 217
31 11 283
31 13 2
31 14 29
31 15 315
31 16 70
31 17 17
31 18 312
31 19 82
31 20 200
31 21 319
31 22 79
31 23 149
31 24 210
31 25 196
31 26 121
31 27 70
31 28 11
31 29 168
31 30 192
32 0 127
32 1 70
32 2 75
32 3 233
32 4 238
32 5 197
32 6 51
32 7 257
32 8 239
32 9 202
32 10 60
32 11 120
32 12 6
32 13 290
32 14 133
32 16 319
32 17 149
32 18 33
32 19 114
32 21 128
32 22 138
32 23 191
32 24 212
32 27 26
32 28 22
32 29 271
32 30 33
32 31 194
33 1 115
33 2 3
33 3 192
33 4 275
33 5 108
33 6 30
33 7 50
33 8 198
33 9 130
33 11 268
33 12 298
33 13 274
33 14 173
33 15 38
33 17 27
33 18 29
33 19 138
33 20 126
33 21 75
33 22 148
33 23 168
33 25 309
33 26 98
33 27 213
33 29 258
33 31 53
33 32 108
34 0 281
34 1 122
34 2 209
34 3 123
34 4 213
34 5 225
34 6 279
34 7 11
34 8 18
34 9 147
34 10 1
34 11 201
34 12 6
34 13 87
34 14 271
34 15 104
34 16 165
34 17 51
34 18 270
34 20 249
34 21 274
34 22 175
34 23 251
34 24 270
34 27 127
34 29 101
34 30 11
34 31 207
34 32 167
34 33 45
35 0 292
35 1 127
35 2 166
35 3 223
35 4 84
35 6 197
35 8 135
35 9 154
35 10 276
35 11 104
35 12 154
35 13 232
35 14 94
35 16 24
35 17 283
35 18 33
35 19 286
35 20 111
35 21 281
35 22 307
35 23 221
35 25 239
35 26 113
35 27 224
35 28 213
35 30 206
35 31 128
35 32 153
35 33 158
35 34 128
36 0 109
36 1 50
36 2 236
36 3 285
36 4 135
36 5 24
36 7 55
36 9 205
36 10 219
36 11 43
36 12 308
36 13 193
36 14 12
36 15 313
36 16 268
36 17 260
36 18 300
36 19 61
36 21 10
36 22 48
36 23 131
36 24 134
36 25 94
36 26 52
36 27 279
36 28 28
36 29 166
36 30 4
36 31 89
36 32 61
36 33 131
36 34 226
37 0 16
37 1 153
37 2 239
37 3 99
37 5 148
37 6 210
37 8 22
37 9 249
37 10 8
37 11 258
37 12 190
37 13 200
37 14 140
37 15 111
37 17 282
37 18 12
37 19 111
37 20 164
37 21 253
37 22 243
37 23 84
37 24 61
37 25 193
37 26 189
37 27 180
37 28 278
37 29 59
37 30 102
37 31 72
37 32 152
37 34 162
37 35 214
37 36 217
38 1 189
38 3 12
38 4 75
38 6 270
38 7 153
38 8 6
38 10 113
38 11 109
38 12 316
38 13 88
38 14 221
38 15 54
38 16 141
38 17 291
38 18 4
38 19 32
38 20 133
38 21 300
38 22 156
38 23 269
38 24 132
38 25 274
38 26 293
38 27 27
38 28 49
38 29 49
38 30 62
38 31 243
38 32 30
38 33 293
38 34 56
38 36 33
38 37 107
39 0 286
39 1 7
39 2 171
39 4 249
39 5 289
39 6 294
39 7 57
39 8 20
39 9 155
39 10 66
39 11 252
39 12 139
39 13 55
39 14 197
39 15 212
39 16 232
39 17 238
39 18 215
39 19 159
39 20 16
39 21 169
39 22 258
39 23 311
39 24 89
39 25 283
39 26 100
39 27 70
39 28 182
39 29 158
39 30 56
39 31 286
39 32 309
39 33 107
39 34 186
39 35 124
39 36 166
39 37 194
39 38 11
40 0 4
40 1 158
40 2 291
40 3 114
40 4 52
40 5 165
40 6 153
40 7 15
40 8 256
40 9 267
40 10 97
40 11 235
40 12 249
40 13 313
40 14 116
40 15 235
40 16 264
40 17 156
40 18 121
40 19 292
40 20 80
40 21 177
40 22 243
40 23 117
40 24 199
40 25 218
40 27 42
40 28 4
40 29 74
40 30 316
40 31 25
40 32 78
40 33 59
40 34 127
40 35 39
40 37 316
40 38 82
41 1 232
41 2 55
41 3 89
41 4 281
41 5 255
41 6 117
41 7 170
41 8 168
41 9 35
41 10 197
41 11 49
41 12 1
41 13 312
41 14 15
41 15 1
41 16 171
41 17 258
41 19 12
41 20 232
41 21 43
41 22 215
41 23 2
41 24 280
41 25 168
41 26 240
41 27 204
41 28 34
41 30 1
41 31 251
41 32 217
41 33 46
41 34 89
41 35 145
41 36 12
41 37 196
41 38 192
41 39 65
41 40 278
42 0 209
42 1 22
42 2 259
42 3 151
42 6 314
42 8 72
42 9 256
42 10 104
42 12 98
42 13 106
42 14 31
42 15 84
42 16 274
42 17 3
42 18 304
42 19 313
42 20 286
42 21 168
42 22 20
42 23 19
42 24 28
42 25 39
42 26 44
42 27 9
42 28 182
42 29 152
42 30 317
42 31 81
42 32 309
42 33 262
42 34 272
42 35 16
42 36 110
42 37 278
42 38 134
42 39 282
42 40 20
42 41 115
43 0 113
43 1 11
43 2 269
43 3 109
43 4 28
43 5 190
43 6 200
43 7 182
43 8 50
43 9 217
43 10 7
43 11 204
43 12 160
43 13 53
43 15 184
43 16 194
43 17 72
43 18 277
43 19 41
43 20 310
43 21 298
43 22 147
43 25 315
43 26 95
43 27 277
43 28 309
43 29 210
43 30 44
43 31 165
43 32 208
43 33 14
43 34 320
43 35 17
43 36 93
43 37 287
43 38 290
43 39 60
43 40 120
43 41 36
43 42 56
44 0 40
44 1 93
44 2 143
44 3 301
44 4 231
44 5 69
44 6 46
44 7 112
44 8 173
44 9 298
44 10 96
44 11 218
44 12 111
44 13 109
44 14 68
44 15 252
44 16 274
44 17 249
44 18 319
44 19 190
44 21 179
44 22 158
44 23 40
44 24 150
44 25 135
44 26 146
44 27 188
44 28 197
44 29 55
44 31 125
44 32 169
44 33 52
44 34 233
44 35 135
44 36 46
44 37 285
44 38 316
44 39 290
44 40 129
44 41 169
44 43 215
45 0 272
45 1 161
45 2 202
45 3 140
45 4 168
45 5 144
45 6 183
45 7 241
45 8 290
45 9 41
45 10 78
45 11 104
45 12 233
45 13 187
45 15 23
45 16 268
45 18 73
45 19 261
45 20 206
45 21 53
45 22 249
45 23 218
45 25 240
45 26 219
45 27 284
45 28 244
45 29 183
45 30 274
45 31 226
45 32 264
45 33 106
45 34 150
45 35 298
45 36 76
45 38 195
45 39 6
45 40 30
45 41 166
45 42 148
45 43 265
45 44 76
46 0 236
46 1 261
46 2 31
46 4 4
46 5 83
46 6 312
46 8 226
46 9 314
46 10 146
46 11 148
46 12 273
46 13 75
46 14 208
46 15 121
46 16 198
46 17 291
46 18 35
46 19 289
46 20 180
46 21 32
46 25 290
46 27 235
46 28 216
46 29 146
46 30 159
46 31 45
46 32 187
46 33 161
46 35 130
46 36 310
46 37 95
46 39 62
46 40 47
46 41 259
46 42 277
46 43 244
46 44 198
46 45 211
47 0 48
47 1 245
47 2 39
47 3 108
47 5 253
47 6 12
47 7 207
47 8 17
47 9 113
47 10 133
47 11 153
47 12 208
47 13 91
47 14 39
47 15 270
47 16 147
47 17 197
47 18 286
47 21 189
47 22 317
47 23 218
47 24 95
47 25 250
47 26 240
47 27 266
47 28 92
47 29 150
47 30 224
47 31 134
47 32 18
47 33 58
47 34 91
47 35 269
47 36 208
47 37 291
47 38 63
47 39 315
47 40 238
47 41 146
47 42 233
47 43 180
47 44 303
47 45 312
47 46 102
48 0 139
48 1 263
48 2 32
48 3 45
48 4 5
48 5 320
48 6 148
48 7 215
48 8 32
48 9 22
48 10 143
48 11 187
48 12 206
48 13 22
48 14 158
48 15 137
48 16 133
48 17 262
48 18 108
48 21 165
48 22 123
48 25 238
48 26 47
48 27 132
48 28 281
48 29 135
48 31 15
48 32 68
48 34 96
48 35 176
48 36 133
48 37 221
48 38 295
48 39 289
48 40 201
48 41 275
48 42 143
48 43 308
48 44 12
48 45 89
48 46 188
49 0 112
49 1 240
49 2 130
49 3 313
49 4 180
49 5 35
49 6 7
49 7 264
49 8 267
49 9 38
49 10 265
49 11 58
49 12 302
49 13 179
49 14 319
49 15 210
49 16 65
49 17 292
49 18 30
49 19 163
49 20 163
49 21 133
49 22 136
49 23 290
49 24 102
49 25 176
49 27 19
49 28 253
49 29 241
49 30 188
49 31 24
49 32 262
49 33 213
49 34 7
49 35 114
49 36 251
49 37 194
49 38 195
49 39 193
49 40 48
49 41 34
49 42 252
49 43 286
49 44 315
49 45 284
49 46 222
50 0 264
50 1 33
50 2 305
50 3 105
50 4 156
50 5 250
50 6 10
50 7 165
50 8 297
50 9 262
50 10 301
50 11 82
50 12 157
50 13 72
50 14 55
50 15 25
50 17 198
50 18 157
50 19 179
50 20 125
50 21 52
50 22 178
50 23 20
50 24 35
50 25 16
50 26 223
50 27 34
50 28 165
50 29 209
50 30 192
50 31 232
50 32 219
50 33 29
50 34 27
50 35 171
50 37 262
50 38 230
50 39 141
50 40 158
50 41 71
50 42 28
50 43 110
50 44 143
50 45 156
50 46 181
50 47 144
50 48 319
50 49 183
51 0 62
51 1 252
51 2 315
51 3 249
51 4 308
51 5 7
51 6 29
51 7 181
51 8 151
51 9 309
51 10 64
51 11 68
51 12 23
51 13 99
51 14 85
51 15 301
51 16 99
51 17 261
51 18 52
51 19 94
51 20 293
51 21 140
51 22 115
51 23 289
51 24 206
51 25 9
51 26 117
51 27 291
51 29 98
51 30 213
51 31 2
51 32 154
51 33 54
51 34 305
51 35 42
51 36 223
51 37 171
51 38 21
51 40 79
51 41 70
51 42 177
51 43 210
51 44 170
51 45 44
51 46 49
51 47 147
51 48 228
51 50 37
52 0 209
52 1 152
52 2 149
52 3 98
52 4 22
52 5 108
52 7 121
52 8 136
52 9 226
52 10 230
52 11 246
52 12 301
52 13 305
52 14 224
52 15 292
52 16 280
52 17 311
52 18 31
52 19 33
52 21 164
52 22 121
52 23 151
52 24 44
52 26 146
52 27 88
52 30 306
52 32 173
52 33 302
52 34 185
52 35 176
52 36 9
52 37 119
52 38 110
52 40 55
52 41 151
52 42 56
52 43 217
52 44 257
52 45 284
52 46 98
52 47 191
52 48 171
52 49 295
52 50 206
53 0 21
53 2 235
53 3 35
53 5 124
53 6 173
53 7 193
53 8 265
53 9 191
53 10 264
53 11 179
53 12 196
53 13 152
53 14 179
53 15 193
53 16 119
53 17 241
53 18 57
53 19 15
53 22 279
53 23 272
53 24 229
53 25 50
53 26 118
53 27 284
53 28 245
53 29 249
53 30 132
53 31 158
53 32 274
53 33 224
53 34 64
53 35 119
53 36 1
53 37 278
53 38 58
53 39 320
53 40 245
53 41 69
53 42 130
53 43 205
53 44 193
53 45 96
53 46 139
53 47 115
53 49 7
53 50 299
53 51 216
53 52 1
54 0 138
54 1 185
54 2 139
54 3 320
54 4 126
54 5 267
54 6 217
54 7 41
54 8 143
54 9 182
54 10 231
54 12 212
54 13 221
54 14 177
54 15 54
54 16 111
54 19 123
54 20 33
54 21 61
54 22 69
54 24 186
54 25 143
54 26 195
54 27 257
54 28 25
54 29 243
54 30 283
54 31 21
54 32 181
54 33 109
54 34 188
54 35 103
54 36 299
54 37 295
54 38 149
54 39 314
54 40 54
54 41 176
54 42 29
54 43 117
54 44 256
54 45 143
54 46 61
54 47 272
54 48 219
54 49 86
54 50 114
54 51 160
54 52 303
54 53 262
55 1 289
55 3 33
55 4 186
55 6 129
55 7 303
55 8 5
55 9 194
55 10 103
55 11 11
55 12 252
55 13 107
55 14 128
55 15 82
55 16 178
55 17 88
55 18 225
55 19 9
55 20 160
55 21 143
55 22 157
55 23 294
55 24 188
55 25 9
55 26 236
55 27 87
55 28 96
55 29 31
55 30 154
55 31 132
55 32 70
55 33 108
55 34 140
55 35 204
55 36 185
55 37 228
55 38 173
55 39 170
55 40 10
55 41 29
55 42 111
55 43 96
55 44 77
55 45 92
55 47 154
55 48 241
55 49 200
55 50 104
55 51 102
55 52 314
55 53 274
55 54 129
56 0 14
56 1 104
56 2 275
56 3 157
56 4 128
56 6 174
56 7 54
56 8 303
56 10 264
56 11 4
56 12 261
56 14 50
56 15 193
56 16 194
56 17 88
56 19 192
56 21 107
56 22 210
56 23 72
56 24 82
56 25 187
56 26 105
56 28 19
56 29 308
56 30 142
56 31 78
56 32 164
56 33 102
56 34 93
56 35 82
56 36 315
56 38 28
56 39 44
56 40 87
56 41 138
56 42 17
56 43 176
56 44 269
56 45 218
56 46 305
56 47 164
56 48 54
56 49 122
56 50 222
56 51 295
56 52 163
56 53 87
56 54 148
57 0 201
57 1 245
57 2 123
57 3 148
57 4 143
57 5 41
57 6 245
57 7 254
57 8 20
57 10 88
57 11 69
57 12 89
57 13 94
57 14 194
57 15 90
57 16 198
57 17 110
57 18 209
57 20 61
57 21 77
57 22 55
57 23 45
57 24 104
57 26 261
57 27 296
57 28 91
57 29 61
57 30 26
57 31 195
57 32 294
57 33 277
57 34 116
57 35 165
57 36 157
57 37 44
57 38 171
57 39 226
57 40 161
57 41 222
57 42 24
57 43 311
57 44 100
57 45 250
57 46 308
57 47 147
57 48 26
57 49 169
57 50 252
57 52 219
57 53 185
57 54 145
57 55 191
57 56 196
58 0 51
58 1 12
58 2 68
58 3 56
58 4 14
58 5 217
58 6 80
58 7 183
58 8 119
58 9 111
58 10 191
58 11 250
58 12 296
58 13 121
58 14 190
58 15 26
58 16 305
58 17 103
58 19 267
58 20 24
58 21 215
58 22 150
58 23 126
58 24 12
58 25 77
58 27 181
58 28 240
58 29 286
58 31 52
58 32 237
58 33 31
58 34 317
58 35 4
58 36 172
58 37 311
58 38 309
58 39 9
58 40 104
58 41 189
58 42 186
58 43 197
58 44 268
58 45 73
58 47 139
58 49 168
58 50 141
58 51 27
58 52 237
58 53 228
58 54 279
58 55 172
58 57 74
59 0 251
59 1 141
59 2 202
59 3 67
59 4 79
59 6 42
59 7 122
59 8 304
59 9 237
59 10 149
59 12 259
59 13 18
59 14 106
59 15 89
59 16 80
59 17 102
59 19 109
59 20 124
59 21 239
59 23 30
59 24 317
59 25 299
59 26 172
59 27 97
59 28 25
59 29 145
59 30 207
59 31 149
59 32 85
59 33 246
59 34 205
59 35 137
59 36 221
59 37 279
59 38 89
59 39 42
59 40 241
59 41 92
59 42 316
59 43 130
59 44 61
59 45 53
59 47 279
59 48 313
59 49 210
59 50 138
59 51 200
59 52 254
59 53 28
59 54 81
59 55 259
59 56 88
59 57 97
59 58 40
60 0 201
60 1 5
60 2 105
60 3 125
60 4 131
60 6 124
60 7 194
60 8 271
60 9 78
60 11 94
60 12 195
60 13 93
60 14 27
60 15 80
60 16 160
60 17 89
60 18 183
60 19 287
60 20 22
60 21 99
60 22 294
60 23 175
60 24 175
60 25 258
60 26 11
60 27 135
60 28 146
60 29 39
60 30 174
60 31 73
60 32 93
60 33 123
60 34 264
60 35 82
60 36 30
60 37 144
60 38 142
60 39 142
60 40 73
60 41 16
60 42 286
60 43 70
60 44 284
60 45 176
60 46 268
60 47 14
60 48 52
60 49 274
60 50 78
60 51 300
60 52 221
60 54 35
60 55 181
60 56 82
60 57 64
60 58 210
60 59 254
61 0 248
61 1 19
61 2 291
61 4 118
61 5 304
61 6 132
61 7 137
61 8 55
61 9 141
61 10 300
61 11 76
61 12 264
61 13 56
61 14 110
61 15 77
61 16 232
61 17 202
61 19 221
61 20 8
61 21 87
61 22 275
61 23 148
61 25 152
61 26 259
61 27 223
61 28 196
61 29 185
61 30 241
61 31 68
61 32 229
61 33 293
61 34 263
61 35 314
61 36 304
61 38 231
61 39 248
61 40 205
61 41 124
61 42 237
61 45 59
61 46 171
61 47 187
61 48 243
61 49 142
61 50 220
61 51 187
61 53 306
61 54 126
61 55 213
61 56 318
61 57 171
61 58 196
61 59 296
61 60 201
62 0 73
62 1 302
62 2 9
62 3 293
62 4 14
62 5 167
62 7 291
62 8 222
62 9 300
62 10 217
62 11 214
62 12 109
62 13 23
62 14 191
62 15 125
62 16 226
62 18 54
62 19 301
62 20 213
62 21 60
62 23 76
62 24 116
62 25 77
62 26 84
62 27 223
62 28 146
62 29 116
62 30 182
62 33 58
62 34 293
62 37 38
62 38 256
62 39 157
62 40 130
62 41 249
62 42 152
62 43 54
62 44 113
62 45 173
62 46 21
62 47 178
62 48 230
62 49 86
62 50 216
62 51 8
62 52 227
62 53 21
62 54 80
62 55 210
62 56 291
62 57 198
62 58 232
62 59 248
63 0 64
63 1 168
63 2 43
63 5 34
63 7 204
63 8 67
63 10 149
63 11 245
63 12 104
63 13 80
63 14 200
63 15 179
63 17 174
63 18 9
63 19 69
63 20 304
63 21 157
63 22 136
63 23 253
63 24 133
63 25 119
63 26 260
63 27 319
63 28 179
63 29 145
63 30 217
63 33 283
63 35 269
63 36 219
63 37 65
63 38 139
63 39 119
63 40 316
63 41 245
63 42 125
63 44 73
63 45 16
63 46 72
63 47 26
63 48 6
63 49 27
63 50 44
63 51 179
63 52 167
63 53 252
63 54 146
63 55 314
63 56 238
63 57 241
63 58 16
63 59 4
63 60 30
63 61 57
63 62 44
64 0 24
64 1 273
64 2 128
64 3 74
64 4 7
64 6 170
64 7 2
64 8 187
64 9 296
64 10 174
64 12 252
64 13 141
64 14 34
64 15 204
64 16 264
64 17 23
64 18 92
64 19 99
64 20 176
64 21 212
64 22 252
64 24 122
64 26 254
64 27 268
64 28 20
64 29 63
64 30 215
64 31 54
64 33 16
64 34 11
64 35 304
64 36 233
64 37 177
64 38 232
64 39 82
64 40 287
64 41 26
64 42 269
64 43 203
64 44 216
64 45 113
64 46 175
64 47 108
64 48 248
64 49 219
64 50 214
64 51 43
64 52 261
64 53 247
64 54 28
64 55 225
64 56 231
64 57 271
64 58 177
64 59 176
64 60 269
64 61 69
64 62 104
64 63 320
65 0 221
65 1 151
65 2 42
65 3 82
65 4 203
65 5 290
65 7 78
65 8 232
65 9 317
65 10 283
65 11 152
65 12 117
65 13 70
65 14 89
65 15 78
65 16 58
65 17 175
65 18 98
65 19 80
65 20 214
65 21 153
65 22 302
65 23 144
65 24 204
65 25 305
65 26 232
65 27 228
65 28 128
65 29 190
65 30 25
65 31 239
65 32 13
65 33 25
65 34 151
65 35 118
65 36 196
65 37 135
65 38 319
65 40 63
65 41 177
65 42 217
65 43 102
65 44 94
65 45 246
65 46 34
65 47 210
65 48 136
65 49 82
65 50 64
65 51 261
65 52 91
65 53 141
65 55 205
65 56 146
65 57 258
65 59 243
65 60 20
65 61 290
65 62 30
65 63 250
66 0 17
66 1 170
66 2 118
66 3 28
66 4 253
66 5 121
66 6 290
66 7 279
66 9 121
66 10 128
66 11 166
66 12 42
66 13 303
66 14 160
66 15 219
66 16 150
66 17 267
66 18 232
66 20 81
66 21 58
66 22 53
66 23 95
66 24 265
66 25 3
66 26 237
66 27 308
66 28 226
66 29 290
66 30 1
66 31 175
66 32 152
66 33 312
66 34 8
66 35 198
66 36 152
66 37 252
66 38 198
66 39 252
66 40 214
66 41 177
66 42 292
66 43 132
66 44 181
66 45 138
66 46 110
66 47 78
66 48 49
66 49 284
66 50 212
66 51 162
66 52 80
66 53 52
66 54 312
66 55 40
66 56 240
66 57 85
66 59 160
66 60 140
66 61 149
66 62 209
66 63 49
66 64 259
66 65 200
67 0 224
67 1 83
67 2 131
67 3 106
67 5 22
67 6 175
67 7 3
67 8 150
67 9 290
67 10 146
67 12 279
67 13 143
67 14 22
67 15 216
67 16 318
67 18 230
67 19 81
67 20 222
67 22 25
67 23 315
67 24 6
67 25 171
67 26 95
67 27 163
67 28 250
67 29 98
67 30 56
67 31 284
67 32 60
67 33 75
67 34 61
67 35 22
67 36 36
67 37 128
67 38 252
67 40 155
67 41 304
67 42 278
67 43 272
67 44 6
67 45 10
67 46 263
67 47 121
67 48 126
67 49 232
67 50 293
67 52 239
67 53 198
67 55 145
67 56 227
67 57 151
67 58 191
67 59 175
67 60 44
67 61 93
67 62 22
67 63 126
67 64 61
67 66 70
68 0 314
68 1 74
68 2 132
68 3 256
68 4 252
68 5 51
68 6 265
68 7 292
68 8 289
68 9 16
68 10 79
68 11 237
68 13 142
68 14 234
68 15 121
68 16 18
68 17 204
68 18 66
68 19 226
68 20 198
68 21 136
68 22 15
68 23 212
68 24 178
68 25 46
68 26 83
68 27 159
68 29 7
68 30 72
68 31 290
68 32 97
68 33 102
68 34 255
68 35 304
68 36 249
68 37 265
68 38 87
68 39 309
68 40 170
68 41 165
68 42 275
68 43 10
68 44 245
68 45 305
68 46 181
68 47 185
68 48 246
68 49 187
68 50 60
68 51 207
68 52 106
68 53 254
68 54 161
68 55 305
68 56 315
68 57 183
68 58 256
68 59 67
68 60 295
68 61 293
68 62 44
68 63 128
68 64 160
68 65 77
68 66 307
68 67 315
69 0 232
69 1 130
69 3 175
69 4 99
69 5 194
69 6 75
69 7 137
69 8 100
69 9 309
69 10 64
69 11 152
69 12 73
69 13 285
69 14 127
69 15 35
69 16 282
69 19 287
69 21 259
69 22 208
69 23 7
69 24 134
69 25 262
69 26 113
69 27 301
69 28 83
69 29 186
69 30 61
69 31 134
69 32 179
69 33 192
69 34 107
69 36 171
69 37 204
69 38 227
69 39 17
69 41 281
69 42 272
69 43 95
69 44 105
69 45 180
69 46 164
69 47 73
69 48 249
69 49 76
69 50 44
69 51 313
69 52 283
69 53 203
69 54 108
69 56 193
69 58 9
69 59 130
69 60 95
69 61 314
69 62 264
69 63 40
69 64 233
69 65 123
69 66 274
69 67 269
